1 100 534 105
0 40.0 50.0 0.0 0.0 0 1236
2 45.0 68.0 90.0 10.0 760 1120 1 5
3 45.0 70.0 90.0 30.0 668 1028 2 5
4 42.0 66.0 90.0 10.0 16 376 3 5
5 42.0 68.0 90.0 10.0 575 935 4 5
6 42.0 65.0 90.0 10.0 15 375 5 5
7 40.0 69.0 90.0 20.0 482 842 6 10
8 40.0 66.0 90.0 20.0 18 378 7 10
9 38.0 68.0 90.0 20.0 110 470 8 10
10 38.0 70.0 90.0 10.0 390 750 9 10
11 35.0 66.0 90.0 10.0 204 564 10 10
12 35.0 69.0 90.0 10.0 297 657 11 15
13 25.0 85.0 90.0 20.0 507 867 12 15
14 22.0 75.0 90.0 30.0 30 390 13 15
15 22.0 85.0 90.0 10.0 414 774 14 15
16 20.0 80.0 90.0 40.0 227 587 15 15
17 20.0 85.0 90.0 40.0 322 682 16 5
18 18.0 75.0 90.0 20.0 33 393 17 5
19 15.0 75.0 90.0 20.0 37 397 18 5
20 15.0 80.0 90.0 10.0 132 492 19 5
21 30.0 50.0 90.0 10.0 10 370 20 5
22 30.0 52.0 90.0 20.0 760 1120 21 10
23 28.0 52.0 90.0 20.0 668 1028 22 10
24 28.0 55.0 90.0 10.0 575 935 23 10
25 25.0 50.0 90.0 10.0 15 375 24 10
26 25.0 52.0 90.0 40.0 17 377 25 10
27 25.0 55.0 90.0 10.0 482 842 26 15
28 23.0 52.0 90.0 10.0 109 469 27 15
29 23.0 55.0 90.0 20.0 390 750 28 15
30 20.0 50.0 90.0 10.0 202 562 29 15
31 20.0 55.0 90.0 10.0 297 657 30 15
32 10.0 35.0 90.0 20.0 39 399 31 5
33 10.0 40.0 90.0 30.0 31 391 32 5
34 8.0 40.0 90.0 40.0 33 393 33 5
35 8.0 45.0 90.0 20.0 604 964 34 5
36 5.0 35.0 90.0 10.0 134 494 35 5
37 5.0 45.0 90.0 10.0 511 871 36 10
38 2.0 40.0 90.0 20.0 229 589 37 10
39 0.0 40.0 90.0 30.0 321 681 38 10
40 0.0 45.0 90.0 20.0 416 776 39 10
41 35.0 30.0 90.0 10.0 113 473 40 10
42 35.0 32.0 90.0 10.0 21 381 41 15
43 33.0 32.0 90.0 20.0 19 379 42 15
44 33.0 35.0 90.0 10.0 16 376 43 15
45 32.0 30.0 90.0 10.0 206 566 44 15
46 30.0 30.0 90.0 10.0 391 751 45 15
47 30.0 32.0 90.0 30.0 299 659 46 5
48 30.0 35.0 90.0 10.0 767 1127 47 5
49 28.0 30.0 90.0 10.0 483 843 48 5
50 28.0 35.0 90.0 10.0 766 1126 49 5
51 26.0 32.0 90.0 10.0 668 1028 50 5
52 25.0 30.0 90.0 10.0 576 936 51 10
53 25.0 35.0 90.0 10.0 761 1121 52 10
54 44.0 5.0 90.0 20.0 137 497 53 10
55 42.0 10.0 90.0 40.0 42 402 54 10
56 42.0 15.0 90.0 10.0 35 395 55 10
57 40.0 5.0 90.0 30.0 231 591 56 15
58 40.0 15.0 90.0 40.0 35 395 57 15
59 38.0 5.0 90.0 30.0 323 683 58 15
60 38.0 15.0 90.0 10.0 516 876 59 15
61 35.0 5.0 90.0 20.0 416 776 60 15
62 50.0 30.0 90.0 10.0 391 751 61 5
63 50.0 35.0 90.0 20.0 110 470 62 5
64 50.0 40.0 90.0 50.0 15 375 63 5
65 48.0 30.0 90.0 10.0 483 843 64 5
66 48.0 40.0 90.0 10.0 12 372 65 5
67 47.0 35.0 90.0 10.0 671 1031 66 10
68 47.0 40.0 90.0 10.0 12 372 67 10
69 45.0 30.0 90.0 10.0 576 936 68 10
70 45.0 35.0 90.0 10.0 763 1123 69 10
71 95.0 30.0 90.0 30.0 242 602 70 10
72 95.0 35.0 90.0 20.0 147 507 71 15
73 53.0 30.0 90.0 10.0 298 658 72 15
74 92.0 30.0 90.0 10.0 335 695 73 15
75 53.0 35.0 90.0 50.0 203 563 74 15
76 45.0 65.0 90.0 20.0 770 1130 75 15
77 90.0 35.0 90.0 10.0 52 412 76 5
78 88.0 30.0 90.0 10.0 429 789 77 5
79 88.0 35.0 90.0 20.0 50 410 78 5
80 87.0 30.0 90.0 10.0 520 880 79 5
81 85.0 25.0 90.0 10.0 615 975 80 5
82 85.0 35.0 90.0 30.0 47 407 81 10
83 75.0 55.0 90.0 20.0 215 575 82 10
84 72.0 55.0 90.0 10.0 122 482 83 10
85 70.0 58.0 90.0 20.0 311 671 84 10
86 68.0 60.0 90.0 30.0 404 764 85 10
87 66.0 55.0 90.0 10.0 26 386 86 15
88 65.0 55.0 90.0 20.0 25 385 87 15
89 65.0 60.0 90.0 30.0 497 857 88 15
90 63.0 58.0 90.0 10.0 590 950 89 15
91 60.0 55.0 90.0 10.0 20 380 90 15
92 60.0 60.0 90.0 10.0 683 1043 91 5
93 67.0 85.0 90.0 20.0 225 585 92 5
94 65.0 85.0 90.0 40.0 317 677 93 5
95 65.0 82.0 90.0 10.0 131 491 94 5
96 62.0 80.0 90.0 30.0 38 398 95 5
97 60.0 80.0 90.0 10.0 36 396 96 10
98 60.0 85.0 90.0 30.0 412 772 97 10
99 58.0 75.0 90.0 20.0 30 390 98 10
100 55.0 80.0 90.0 10.0 602 962 99 10
101 55.0 85.0 90.0 20.0 507 867 100 10